/*********************************************
 * OPL 12.8.0.0 Data
 * Author: HP
 * Creation Date: Oct 28, 2022 at 11:50:42 PM
 *********************************************/
NPatients=20;
Ndays=10;
capacity=[4,4,4,4,4,4,4,4,4,4];
T=3;
SheetConnection sheet ("multi-period-resourceV2.xlsx");
x from SheetRead (sheet,"Data!B3:K22");
//type=[[1,1,1,1,1,1,1,1,1,1,0,0,0,0,0,0,0,0,0,0],[0,0,0,0,0,0,0,0,0,0,1,1,1,1,1,0,0,0,0,0],[0,0,0,0,0,1,0,0,0,0,0,0,0,0,0,1,1,1,1,1]];
//x=[[0,0,0,0,0,0,0,1,0,0,0,0,0,1,0,1,0,0,0,1],[1,1,0,0,0,0,0,1,0,0,1,0,1,0,1,1,1,0,0,1],
//[1,1,0,0,0,0,1,1,1,0,1,1,1,0,1,1,1,0,0,1],[0,1,1,0,0,0,1,1,1,0,0,1,1,0,1,1,1,0,0,0]
//[0,1,1,1,0,1,1,0,1,0,0,1,0,0,0,0,0,1,1,0],[0,1,0,1,0,1,1,0,1,0,0,0,0,0,0,0,0,1,1,0],
//[0,0,0,1,0,1,0,0,0,0,0,0,0,0,0,0,0,1,0,0],[0,0,0,0,0,1,0,0,0,0,0,0,0,0,0,0,0,1,0,0],
//[0,0,0,0,0,1,0,0,0,0,0,0,0,0,0,0,0,1,0,0],[0,0,0,0,0,1,0,0,0,0,0,0,0,0,0,0,0,1,0,0]];
//day=#[1:<[0,1,1,1,1]>2:<[1,1,1,1,0]>3:<[1,0,1,0,0]>]#;
